Problem:    ex1
Rows:       8
Columns:    6 (6 integer, 6 binary)
Non-zeros:  20
Status:     INTEGER OPTIMAL
Objective:  quantCubos = 3 (MINimum)

   No.   Row name        Activity     Lower bound   Upper bound
------ ------------    ------------- ------------- -------------
     1 quantCubos                  3                             
     2 r1[a]                       1             1               
     3 r1[b]                       1             1               
     4 r1[c]                       1             1               
     5 r1[d]                       1             1               
     6 r1[e]                       1             1               
     7 r1[f]                       1             1               
     8 r1[g]                       1             1               

   No. Column name       Activity     Lower bound   Upper bound
------ ------------    ------------- ------------- -------------
     1 x[1]         *              0             0             1 
     2 x[2]         *              1             0             1 
     3 x[3]         *              0             0             1 
     4 x[4]         *              1             0             1 
     5 x[5]         *              0             0             1 
     6 x[6]         *              1             0             1 

Integer feasibility conditions:

KKT.PE: max.abs.err = 0.00e+00 on row 0
        max.rel.err = 0.00e+00 on row 0
        High quality

KKT.PB: max.abs.err = 0.00e+00 on row 0
        max.rel.err = 0.00e+00 on row 0
        High quality

End of output
